p cnf 24 60
a 8 14 0
e 1 2 3 4 5 6 7 9 10 11 12 13 15 16 17 18 19 20 21 22 23 24 0
4 2 0
4 -3 0
-2 3 -4 0
1 -4 -5 0
-1 4 -5 0
1 4 5 0
-1 -4 5 0
7 8 -9 0
-7 -8 -9 0
7 -8 9 0
-7 8 9 0
6 -9 -10 0
-6 9 -10 0
6 9 10 0
-6 -9 10 0
-11 -2 0
-11 -9 0
2 9 11 0
-10 11 -12 0
10 -11 -12 0
-10 -11 12 0
10 11 12 0
-13 -5 0
-13 -12 0
5 12 13 0
6 14 -15 0
-6 -14 -15 0
6 -14 15 0
-6 14 15 0
16 -7 0
16 4 0
7 -4 -16 0
-17 15 0
-17 16 0
-15 -16 17 0
-18 -3 0
-18 -1 0
3 1 18 0
-19 18 0
-19 -8 0
-18 8 19 0
-6 -20 -21 0
6 20 -21 0
-6 20 21 0
6 -20 21 0
22 19 0
22 21 0
-19 -21 -22 0
-23 17 0
-23 -22 0
-17 22 23 0
24 13 0
24 -23 0
-13 23 -24 0
6 14 4 -17 5 9 2 0
-6 16 -15 0
-4 12 -18 -16 9 0
-18 15 -16 -17 0
4 -7 12 0
24 0
